; benchmark generated from python API
(set-info :status unknown)
(declare-fun strncmp_ret_84_32 () (_ BitVec 32))
(declare-fun strlen_83_64 () (_ BitVec 64))
(declare-fun args_1_8 () (_ BitVec 8))
(declare-fun strlen_85_64 () (_ BitVec 64))
(declare-fun strncmp_ret_86_32 () (_ BitVec 32))
(declare-fun mem_c0001db2_87_1016 () (_ BitVec 1016))
(assert
 (= (_ bv1 32) strncmp_ret_84_32))
(assert
 (let ((?x101 (bvadd (_ bv576460752303357826 64) strlen_83_64)))
 (let (($x69 (= (_ bv0 8) args_1_8)))
 (let ((?x46 (ite $x69 (_ bv576460752303357826 64) (_ bv576460752303357827 64))))
 (= ?x46 ?x101)))))
(assert
 (let (($x104 (bvule (_ bv2 64) strlen_83_64)))
 (let (($x48 (= (_ bv2 64) strlen_83_64)))
 (let (($x122 (or $x48 $x104)))
 (let (($x123 (not $x122)))
 (let (($x57 (= (_ bv45 8) args_1_8)))
 (let (($x121 (not $x57)))
 (or $x121 $x123))))))))
(assert
 (let (($x69 (= (_ bv0 8) args_1_8)))
 (let ((?x46 (ite $x69 (_ bv576460752303357826 64) (_ bv576460752303357827 64))))
 (let ((?x53 (bvsub ?x46 (_ bv576460752303357826 64))))
 (= ?x53 strlen_85_64)))))
(assert
 (let (($x535 (= (_ bv1 32) strncmp_ret_86_32)))
 (let (($x254 (bvult strlen_85_64 (_ bv0 64))))
 (let (($x57 (= (_ bv45 8) args_1_8)))
 (let (($x248 (or $x57 $x254)))
 (let (($x266 (bvuge strlen_85_64 (_ bv7 64))))
 (let (($x272 (= (_ bv7 64) strlen_85_64)))
 (let (($x260 (or $x272 $x266)))
 (let (($x549 (and $x260 $x248)))
 (let (($x144 (not $x549)))
 (let (($x536 (and $x144 $x535)))
 (let (($x236 (= (_ bv0 32) strncmp_ret_86_32)))
 (let (($x230 (and $x260 $x248 $x236)))
 (or $x230 $x536))))))))))))))
(assert
 (and (distinct (_ bv0 32) strncmp_ret_86_32) true))
(assert
 (let ((?x453 ((_ extract 1015 1008) mem_c0001db2_87_1016)))
 (let (($x429 (= (_ bv47 8) ?x453)))
 (let ((?x114 (ite $x429 (_ bv1 1) (_ bv0 1))))
 (let ((?x471 ((_ extract 1007 1000) mem_c0001db2_87_1016)))
 (let (($x447 (= (_ bv47 8) ?x471)))
 (let ((?x112 (ite $x447 (_ bv1 1) (_ bv0 1))))
 (let ((?x238 ((_ extract 999 992) mem_c0001db2_87_1016)))
 (let (($x465 (= (_ bv47 8) ?x238)))
 (let ((?x301 (ite $x465 (_ bv1 1) (_ bv0 1))))
 (let ((?x235 ((_ extract 991 984) mem_c0001db2_87_1016)))
 (let (($x233 (= (_ bv47 8) ?x235)))
 (let ((?x219 (ite $x233 (_ bv1 1) (_ bv0 1))))
 (let ((?x232 ((_ extract 983 976) mem_c0001db2_87_1016)))
 (let (($x228 (= (_ bv47 8) ?x232)))
 (let ((?x744 (ite $x228 (_ bv1 1) (_ bv0 1))))
 (let ((?x227 ((_ extract 975 968) mem_c0001db2_87_1016)))
 (let (($x220 (= (_ bv47 8) ?x227)))
 (let ((?x286 (ite $x220 (_ bv1 1) (_ bv0 1))))
 (let ((?x231 ((_ extract 967 960) mem_c0001db2_87_1016)))
 (let (($x211 (= (_ bv47 8) ?x231)))
 (let ((?x568 (ite $x211 (_ bv1 1) (_ bv0 1))))
 (let ((?x217 ((_ extract 959 952) mem_c0001db2_87_1016)))
 (let (($x214 (= (_ bv47 8) ?x217)))
 (let ((?x748 (ite $x214 (_ bv1 1) (_ bv0 1))))
 (let ((?x714 ((_ extract 951 944) mem_c0001db2_87_1016)))
 (let (($x715 (= (_ bv47 8) ?x714)))
 (let ((?x571 (ite $x715 (_ bv1 1) (_ bv0 1))))
 (let ((?x711 ((_ extract 943 936) mem_c0001db2_87_1016)))
 (let (($x712 (= (_ bv47 8) ?x711)))
 (let ((?x563 (ite $x712 (_ bv1 1) (_ bv0 1))))
 (let ((?x708 ((_ extract 935 928) mem_c0001db2_87_1016)))
 (let (($x709 (= (_ bv47 8) ?x708)))
 (let ((?x753 (ite $x709 (_ bv1 1) (_ bv0 1))))
 (let ((?x705 ((_ extract 927 920) mem_c0001db2_87_1016)))
 (let (($x706 (= (_ bv47 8) ?x705)))
 (let ((?x110 (ite $x706 (_ bv1 1) (_ bv0 1))))
 (let ((?x308 ((_ extract 919 912) mem_c0001db2_87_1016)))
 (let (($x703 (= (_ bv47 8) ?x308)))
 (let ((?x196 (ite $x703 (_ bv1 1) (_ bv0 1))))
 (let ((?x863 (concat (concat (_ bv0 48) (ite (= (_ bv47 8) ((_ extract 911 904) mem_c0001db2_87_1016)) (_ bv1 1) (_ bv0 1))) ?x196)))
 (let ((?x868 (concat (concat (concat (concat (concat ?x863 ?x110) ?x753) ?x563) ?x571) ?x748)))
 (let ((?x873 (concat (concat (concat (concat (concat ?x868 ?x568) ?x286) ?x744) ?x219) ?x301)))
 (let ((?x876 (concat (concat (concat ?x873 ?x112) ?x114) (_ bv0 2))))
 (let (($x274 (= (_ bv0 8) ?x453)))
 (let ((?x796 (ite $x274 (_ bv1 1) (_ bv0 1))))
 (let (($x288 (= (_ bv0 8) ?x471)))
 (let ((?x787 (ite $x288 (_ bv1 1) (_ bv0 1))))
 (let (($x268 (= (_ bv0 8) ?x238)))
 (let ((?x790 (ite $x268 (_ bv1 1) (_ bv0 1))))
 (let (($x270 (= (_ bv0 8) ?x235)))
 (let ((?x812 (ite $x270 (_ bv1 1) (_ bv0 1))))
 (let (($x265 (= (_ bv0 8) ?x232)))
 (let ((?x788 (ite $x265 (_ bv1 1) (_ bv0 1))))
 (let (($x269 (= (_ bv0 8) ?x227)))
 (let ((?x810 (ite $x269 (_ bv1 1) (_ bv0 1))))
 (let (($x293 (= (_ bv0 8) ?x231)))
 (let ((?x794 (ite $x293 (_ bv1 1) (_ bv0 1))))
 (let (($x206 (= (_ bv0 8) ?x217)))
 (let ((?x800 (ite $x206 (_ bv1 1) (_ bv0 1))))
 (let (($x271 (= (_ bv0 8) ?x714)))
 (let ((?x802 (ite $x271 (_ bv1 1) (_ bv0 1))))
 (let (($x291 (= (_ bv0 8) ?x711)))
 (let ((?x792 (ite $x291 (_ bv1 1) (_ bv0 1))))
 (let (($x684 (= (_ bv0 8) ?x708)))
 (let ((?x811 (ite $x684 (_ bv1 1) (_ bv0 1))))
 (let (($x243 (= (_ bv0 8) ?x705)))
 (let ((?x809 (ite $x243 (_ bv1 1) (_ bv0 1))))
 (let (($x245 (= (_ bv0 8) ?x308)))
 (let ((?x808 (ite $x245 (_ bv1 1) (_ bv0 1))))
 (let ((?x841 (concat (concat (_ bv0 48) (ite (= (_ bv0 8) ((_ extract 911 904) mem_c0001db2_87_1016)) (_ bv1 1) (_ bv0 1))) ?x808)))
 (let ((?x834 (concat (concat (concat (concat (concat ?x841 ?x809) ?x811) ?x792) ?x802) ?x800)))
 (let ((?x855 (concat (concat (concat (concat (concat ?x834 ?x794) ?x810) ?x788) ?x812) ?x790)))
 (let ((?x853 (concat (concat (concat ?x855 ?x787) ?x796) (_ bv2 2))))
 (let ((?x839 (bvadd ?x853 (_ bv18446744073709551615 64))))
 (let ((?x835 (bvxor ?x839 ?x853)))
 (let ((?x877 (bvand ?x835 ?x876)))
 (= (_ bv0 64) ?x877))))))))))))))))))))))))))))))))))))))))))))))))))))))))))))))))))))))))))))))
(maximize args_1_8)
(minimize strncmp_ret_86_32)
(maximize strncmp_ret_86_32)
(minimize strlen_85_64)
(minimize strlen_83_64)
(maximize mem_c0001db2_87_1016)
(minimize mem_c0001db2_87_1016)
(minimize args_1_8)
(maximize strlen_83_64)
(minimize strncmp_ret_84_32)
(maximize strncmp_ret_84_32)
(check-sat)
(get-objectives)
